n = 10; 
d = [|  0, 12, 14,  5,  7, 12, 19, 14,  7,  4 
     | 12,  0,  8,  6, 12,  9,  8, 13,  8,  9
     | 14,  8,  0,  9, 15, 11,  3,  8, 12, 14
     |  5,  6,  9,  0,  9,  7, 14, 15, 10,  8
     |  7, 12, 15,  9,  0,  5,  5,  7, 16, 17
     | 12,  9, 11,  7,  5,  0, 11,  4,  9, 19
     | 19,  8,  3, 14,  5, 11,  0, 10,  6, 13
     | 14, 13,  8, 15,  7,  4, 10,  0, 15, 17
     |  7,  8, 12, 10, 16,  9,  6, 15,  0, 11
     |  4,  9, 14,  8, 17, 19, 13, 17, 11,  0
     |];


v = [ 5, 3, 8, 4, 7, 5, 2, 9, 4, 6];
k = 7;
l = 12;
